c SAT Generator for power-law distributed variable frequencies
c -g u -v 20 -c 91 -k 3 -p 2.750000 -b 3.200000 -f /home/schmidt/Devel/ni-kop-sat/data/ensemble/ruf20-91/ruf20-91-474 -u 1 -U 1 -s 1732339264
p cnf 20 91
1 -12 -19 0
13 -14 18 0
9 14 -18 0
-15 -16 -17 0
-7 -9 -13 0
-6 8 20 0
2 -7 11 0
-9 -18 -19 0
1 -7 16 0
7 12 -20 0
-3 10 17 0
9 18 20 0
16 -17 -18 0
1 11 -12 0
-3 5 10 0
-1 -6 9 0
-9 10 -18 0
2 -14 17 0
-3 18 19 0
4 8 -12 0
7 -9 15 0
-1 -4 -12 0
12 17 19 0
-6 -8 -9 0
-1 2 -13 0
-3 15 -20 0
-4 12 18 0
5 7 -8 0
1 16 17 0
2 -8 -16 0
5 -10 18 0
-6 -11 20 0
5 -17 -20 0
12 -19 20 0
-6 13 -20 0
4 -9 10 0
13 14 -15 0
-1 10 12 0
10 16 -20 0
-3 15 16 0
-4 -16 19 0
2 -5 -18 0
1 -2 10 0
8 9 18 0
5 12 -19 0
-1 19 -20 0
3 -11 16 0
-3 8 -13 0
4 6 16 0
1 -2 -11 0
-4 18 20 0
2 -14 -18 0
4 -6 -14 0
4 -14 15 0
7 11 17 0
-5 7 -11 0
-5 -6 19 0
-7 -13 -16 0
2 -10 -13 0
5 10 -17 0
3 8 11 0
-1 8 -16 0
1 9 -16 0
16 17 -18 0
-7 -14 -18 0
2 -11 -20 0
-1 17 20 0
10 12 20 0
-5 -8 10 0
2 7 -19 0
-5 -7 13 0
6 9 11 0
5 7 9 0
4 -8 9 0
8 -10 -15 0
4 13 17 0
-12 -15 18 0
-2 -6 -16 0
1 -4 7 0
2 -15 20 0
-2 3 18 0
3 11 20 0
-4 8 19 0
-1 -16 -19 0
-1 -10 -15 0
-18 -19 -20 0
-7 -12 20 0
2 7 -14 0
8 -10 -12 0
-9 -12 20 0
-4 -6 13 0
